p wcnf 3000 300 1
1 1 0
1 2 0
1 3 0
1 4 0
1 5 0
1 6 0
1 7 0
1 8 0
1 9 0
1 10 0
1 11 0
1 12 0
1 13 0
1 14 0
1 15 0
1 1 1 1 1 1 1 1 1 1 1 1 1 1 1 0
1 1 2 2 2 2 2 2 2 2 2 2 2 2 2 0
1 2 2 2 2 2 2 2 2 2 2 2 2 2 3 0
1 3 3 3 3 3 3 3 3 3 3 3 3 3 3 0
1 3 3 3 3 3 3 3 3 3 3 3 3 3 3 0
1 3 3 3 4 4 4 4 4 4 4 4 4 4 4 0
1 4 4 4 4 4 4 4 4 4 4 4 4 5 5 0
1 5 5 5 5 5 5 5 5 5 5 5 5 5 5 0
1 5 5 5 5 5 5 5 5 5 5 5 5 5 5 0
1 5 5 5 5 5 5 5 5 5 6 6 6 6 6 0
1 6 6 6 6 6 6 6 6 6 6 6 6 6 6 0
1 6 6 6 6 6 6 7 7 7 7 7 7 7 7 0
1 7 7 7 7 7 7 7 7 7 7 7 7 7 7 0
1 7 7 7 7 7 8 8 8 8 8 8 8 8 8 0
1 8 8 8 8 8 8 8 8 8 8 8 8 8 8 0
1 8 8 8 8 8 8 8 9 9 9 9 9 9 9 0
1 9 9 9 9 9 9 9 9 9 9 9 9 9 9 0
1 9 9 10 10 10 10 10 10 10 10 10 10 10 10 0
1 10 10 10 10 10 10 10 10 10 10 10 10 10 10 0
1 10 10 10 10 10 10 10 10 11 11 11 11 11 11 0
1 11 11 11 11 11 11 11 11 11 11 11 11 11 11 0
1 11 11 11 11 11 12 12 12 12 12 12 12 12 12 0
1 12 12 12 12 12 12 12 12 12 12 13 13 13 13 0
1 13 13 13 13 13 13 13 13 13 13 13 13 13 13 0
1 13 13 13 13 13 13 13 13 13 13 13 13 14 14 0
1 14 14 14 14 14 14 14 14 14 14 14 14 14 14 0
1 14 14 14 14 14 14 14 14 14 14 14 14 14 14 0
1 14 15 15 15 15 15 15 15 15 15 15 15 15 15 0
1 15 15 15 15 15 15 15 15 15 15 15 15 15 15 0
1 16 16 16 16 16 16 16 16 16 16 16 16 16 16 0
1 16 16 16 16 16 16 17 17 17 17 17 17 17 17 0
1 17 17 17 17 17 17 17 17 17 17 17 17 17 17 0
1 17 17 17 17 17 17 17 17 18 18 18 18 18 18 0
1 18 18 18 18 18 18 18 18 18 18 18 18 18 18 0
1 18 18 18 18 18 18 18 18 18 18 18 18 18 18 0
1 18 18 19 19 19 19 19 19 19 19 19 19 19 19 0
1 19 19 19 19 19 19 19 19 19 19 19 19 19 19 0
1 19 20 20 20 20 20 20 20 20 20 20 20 20 20 0
1 20 20 20 20 20 20 20 20 20 20 20 20 20 20 0
1 20 20 20 20 20 20 20 20 20 20 20 21 21 21 0
1 21 21 21 21 21 21 21 21 21 21 21 21 21 21 0
1 21 21 21 21 21 22 22 22 22 22 22 22 22 22 0
1 22 22 22 22 22 22 22 22 22 22 22 22 22 22 0
1 22 22 22 22 22 22 23 23 23 23 23 23 23 23 0
1 23 23 23 23 23 23 23 23 23 23 23 23 23 23 0
1 24 24 24 24 24 24 24 24 24 24 24 24 24 24 0
1 24 24 24 24 24 24 24 24 25 25 25 25 25 25 0
1 25 25 25 25 25 25 25 25 25 25 25 25 25 25 0
1 25 25 25 25 25 25 25 26 26 26 26 26 26 26 0
1 26 26 26 26 26 26 26 26 26 26 26 26 26 26 0
1 26 26 26 26 26 26 26 26 27 27 27 27 27 27 0
1 27 27 27 27 27 27 27 27 27 27 27 27 27 27 0
1 27 27 27 27 27 27 27 27 27 27 27 27 27 28 0
1 28 28 28 28 28 28 28 28 28 28 28 28 28 28 0
1 28 28 28 28 28 28 28 29 29 29 29 29 29 29 0
1 29 29 29 29 29 29 29 29 29 29 29 29 29 29 0
1 30 30 30 30 30 30 30 30 30 30 30 30 30 30 0
1 30 30 30 30 30 30 30 30 30 30 30 30 31 31 0
1 31 31 31 31 31 31 31 31 31 31 31 31 31 31 0
1 31 31 31 31 31 31 31 31 31 31 31 31 31 32 0
1 32 32 32 32 32 32 32 32 32 32 32 32 32 32 0
1 32 32 32 32 32 32 32 32 32 32 32 32 32 32 0
1 32 32 32 32 32 32 32 33 33 33 33 33 33 33 0
1 33 33 33 33 33 33 33 33 33 33 33 33 33 33 0
1 33 33 33 33 33 33 33 34 34 34 34 34 34 34 0
1 34 34 34 34 34 34 34 34 34 34 34 34 34 34 0
1 34 34 34 34 34 34 34 34 34 35 35 35 35 35 0
1 35 35 35 35 35 35 35 35 35 35 35 35 35 35 0
1 35 35 35 35 35 35 35 35 35 35 35 35 35 35 0
1 35 35 36 36 36 36 36 36 36 36 36 36 36 36 0
1 36 36 36 36 36 36 36 36 36 36 36 36 36 36 0
1 36 36 36 36 36 36 37 37 37 37 37 37 37 37 0
1 37 37 37 37 37 37 37 37 37 37 37 37 37 37 0
1 37 37 37 37 38 38 38 38 38 38 38 38 38 38 0
1 38 38 38 38 38 38 38 38 38 38 38 38 38 38 0
1 38 38 38 39 39 39 39 39 39 39 39 39 39 39 0
1 39 39 39 39 39 39 39 39 39 39 39 39 39 39 0
1 39 39 39 39 39 40 40 40 40 40 40 40 40 40 0
1 40 40 40 40 40 40 40 40 40 40 40 40 40 40 0
1 40 40 41 41 41 41 41 41 41 41 41 41 41 41 0
1 41 41 41 41 41 41 41 41 41 41 41 41 41 41 0
1 41 41 41 41 41 41 41 41 41 41 41 41 41 42 0
1 42 42 42 42 42 42 42 42 42 42 42 42 42 42 0
1 42 42 42 42 42 42 42 42 42 42 42 42 42 42 0
1 42 43 43 43 43 43 43 43 43 43 43 43 43 43 0
1 43 43 43 43 43 43 43 43 44 44 44 44 44 44 0
1 44 44 44 44 44 44 44 44 44 44 44 44 44 44 0
1 44 44 44 44 44 45 45 45 45 45 45 45 45 45 0
1 45 45 45 45 45 45 45 45 45 45 45 45 45 45 0
1 45 45 46 46 46 46 46 46 46 46 46 46 46 46 0
1 46 46 46 46 46 46 46 46 46 46 47 47 47 47 0
1 47 47 47 47 47 47 47 47 47 47 47 47 47 47 0
1 47 47 47 47 47 47 47 47 47 47 47 47 47 48 0
1 48 48 48 48 48 48 48 48 48 48 48 48 48 48 0
1 48 48 48 48 48 48 48 48 48 48 49 49 49 49 0
1 49 49 49 49 49 49 49 49 49 49 49 49 49 49 0
1 49 49 49 49 49 49 49 49 49 49 49 49 50 50 0
1 50 50 50 50 50 50 50 50 50 50 50 50 50 50 0
1 50 50 50 50 50 51 51 51 51 51 51 51 51 51 0
1 51 51 51 51 51 51 51 51 51 51 51 51 51 51 0
1 51 51 52 52 52 52 52 52 52 52 52 52 52 52 0
1 52 52 52 52 52 52 52 52 52 52 52 52 52 52 0
1 52 52 52 53 53 53 53 53 53 53 53 53 53 53 0
1 53 53 53 53 53 53 53 53 53 53 53 53 53 53 0
1 53 53 53 53 53 54 54 54 54 54 54 54 54 54 0
1 54 54 54 54 54 54 54 54 54 54 54 54 54 54 0
1 54 55 55 55 55 55 55 55 55 55 55 55 55 55 0
1 55 55 55 55 55 55 55 55 55 55 55 55 55 55 0
1 55 55 55 55 56 56 56 56 56 56 56 56 56 56 0
1 56 56 56 56 56 56 56 56 56 56 56 56 56 56 0
1 56 56 56 56 57 57 57 57 57 57 57 57 57 57 0
1 57 57 57 57 57 57 57 57 57 57 57 57 57 57 0
1 57 57 57 57 57 57 57 57 58 58 58 58 58 58 0
1 58 58 58 58 58 58 58 58 58 58 58 58 58 58 0
1 58 58 58 58 58 58 58 58 58 59 59 59 59 59 0
1 59 59 59 59 59 59 59 59 59 59 59 59 59 59 0
1 59 59 59 59 59 59 59 59 59 59 59 60 60 60 0
1 60 60 60 60 60 60 60 60 60 60 60 60 60 60 0
1 60 60 60 60 60 60 60 60 60 60 60 60 60 60 0
1 61 61 61 61 61 61 61 61 61 61 61 61 61 61 0
1 61 61 61 61 61 61 61 61 61 61 61 61 62 62 0
1 62 62 62 62 62 62 62 62 62 62 62 62 62 62 0
1 62 62 62 62 62 62 63 63 63 63 63 63 63 63 0
1 63 63 63 63 63 63 63 63 63 63 63 63 64 64 0
1 64 64 64 64 64 64 64 64 64 64 64 64 64 64 0
1 64 64 64 64 64 64 64 64 64 64 65 65 65 65 0
1 65 65 65 65 65 65 65 65 65 65 65 65 65 65 0
1 65 65 65 65 65 65 65 65 65 65 65 65 66 66 0
1 66 66 66 66 66 66 66 66 66 66 66 66 66 66 0
1 66 66 66 66 66 66 66 67 67 67 67 67 67 67 0
1 67 67 67 67 67 67 67 67 67 67 67 67 67 67 0
1 67 67 67 67 67 67 67 67 68 68 68 68 68 68 0
1 68 68 68 68 68 68 68 68 68 68 68 68 68 68 0
1 68 68 68 68 68 69 69 69 69 69 69 69 69 69 0
1 69 69 69 69 69 69 69 69 69 69 69 69 69 70 0
1 70 70 70 70 70 70 70 70 70 70 70 70 70 70 0
1 70 70 70 70 70 70 70 70 70 70 70 70 70 70 0
1 70 70 70 70 70 71 71 71 71 71 71 71 71 71 0
1 71 71 71 71 71 71 71 71 71 71 71 72 72 72 0
1 72 72 72 72 72 72 72 72 72 72 72 72 72 72 0
1 72 72 72 72 72 72 72 72 72 73 73 73 73 73 0
1 73 73 73 73 73 73 73 73 73 73 73 73 73 73 0
1 73 73 73 73 73 73 73 73 73 73 73 73 73 74 0
1 74 74 74 74 74 74 74 74 74 74 74 74 74 74 0
1 74 74 74 74 74 74 74 74 74 74 74 74 74 74 0
1 74 74 74 74 75 75 75 75 75 75 75 75 75 75 0
1 75 75 75 75 75 75 75 75 75 75 75 75 75 75 0
1 75 75 75 75 75 75 75 75 75 75 76 76 76 76 0
1 76 76 76 76 76 76 76 76 76 76 76 76 76 76 0
1 76 76 76 76 76 76 76 76 76 76 76 77 77 77 0
1 77 77 77 77 77 77 77 77 77 77 77 77 77 77 0
1 77 77 77 77 77 77 77 78 78 78 78 78 78 78 0
1 78 78 78 78 78 78 78 78 78 78 78 78 78 78 0
1 78 78 78 78 78 78 78 78 78 78 79 79 79 79 0
1 79 79 79 79 79 79 79 79 79 79 79 79 79 79 0
1 79 79 79 79 79 79 79 79 79 79 80 80 80 80 0
1 80 80 80 80 80 80 80 80 80 80 80 80 80 80 0
1 80 80 80 80 80 80 80 80 80 80 80 80 80 80 0
1 80 80 80 81 81 81 81 81 81 81 81 81 81 81 0
1 81 81 81 81 81 81 81 81 81 81 81 81 81 81 0
1 81 81 81 81 81 81 81 81 81 81 81 81 81 82 0
1 82 82 82 82 82 82 82 82 82 82 82 82 82 82 0
1 82 82 82 82 82 82 82 82 82 82 82 83 83 83 0
1 83 83 83 83 83 83 83 83 83 83 83 83 83 83 0
1 83 83 83 83 83 83 83 83 83 83 83 84 84 84 0
1 84 84 84 84 84 84 84 84 84 84 84 84 84 84 0
1 84 84 84 85 85 85 85 85 85 85 85 85 85 85 0
1 85 85 85 85 85 85 85 85 85 85 85 85 85 85 0
1 85 85 85 85 85 85 85 85 86 86 86 86 86 86 0
1 86 86 86 86 86 86 86 86 86 86 86 86 86 86 0
1 86 86 86 86 86 86 86 86 86 86 86 86 86 86 0
1 86 87 87 87 87 87 87 87 87 87 87 87 87 87 0
1 87 87 87 87 87 87 87 87 87 87 87 87 88 88 0
1 88 88 88 88 88 88 88 88 88 88 88 88 88 88 0
1 88 88 88 88 88 88 88 88 88 88 88 88 88 88 0
1 88 88 88 89 89 89 89 89 89 89 89 89 89 89 0
1 89 89 89 89 89 89 89 89 89 89 89 89 89 90 0
1 90 90 90 90 90 90 90 90 90 90 90 90 90 90 0
1 90 90 90 90 90 90 90 90 90 90 90 90 90 90 0
1 90 90 90 90 91 91 91 91 91 91 91 91 91 91 0
1 91 91 91 91 91 91 91 91 91 91 91 91 91 91 0
1 91 91 91 91 91 91 91 91 91 92 92 92 92 92 0
1 92 92 92 92 92 92 92 92 92 92 92 92 92 92 0
1 92 92 92 92 92 93 93 93 93 93 93 93 93 93 0
1 93 93 93 93 93 93 93 93 93 93 93 93 93 93 0
1 93 93 93 93 93 94 94 94 94 94 94 94 94 94 0
1 94 94 94 94 94 94 94 94 94 94 94 94 94 94 0
1 94 95 95 95 95 95 95 95 95 95 95 95 95 95 0
1 95 95 95 95 95 95 95 95 95 95 95 95 95 96 0
1 96 96 96 96 96 96 96 96 96 96 96 96 96 96 0
1 96 96 96 96 96 96 96 96 96 96 97 97 97 97 0
1 97 97 97 97 97 97 97 97 97 97 97 97 97 97 0
1 97 97 97 97 97 97 97 97 97 97 97 97 97 98 0
1 98 98 98 98 98 98 98 98 98 98 98 98 98 98 0
1 98 98 98 98 98 98 98 98 98 98 98 98 98 98 0
1 99 99 99 99 99 99 99 99 99 99 99 99 99 99 0
1 99 99 99 99 99 99 99 99 99 99 99 99 99 99 0
1 99 99 99 99 99 99 99 100 100 100 100 100 100 100 0
1 100 100 100 100 100 100 100 100 100 100 100 100 100 100 0
1  0
1 21 33 34 49 68 77 87 95 103 106 111 136 166 178 0
1 202 220 250 254 260 261 273 317 345 376 385 398 403 431 0
1 452 455 465 466 492 508 558 572 620 647 650 680 696 700 0
1 718 724 726 770 775 777 786 818 842 871 880 885 905 918 0
1 1016 1035 1047 1085 1151 1186 1189 1206 1260 1307 1324 1330 1338 1379 0
1 1390 1419 1457 1480 1490 1499 1512 1528 1531 1552 1560 1592 1617 1634 0
1 1687 1688 1693 1705 1708 1730 1759 1768 1770 1849 1852 1900 1903 1907 0
1 1992 2078 2112 2117 2138 2158 2165 2223 2235 2247 2297 2299 2308 2309 0
1 2390 2391 2414 2423 2438 2445 2446 2447 2466 2483 2494 2520 2532 2550 0
1 2674 2678 2695 2758 2775 2789 2810 2884 2890 2894 2929 2956 2957 2965 0
1 2977 2982 0
1  0
1 54 61 74 100 119 120 156 161 175 244 247 284 299 308 0
1 349 354 397 418 454 481 485 506 512 530 541 546 548 577 0
1 625 641 655 666 668 669 711 716 737 749 754 766 777 782 0
1 793 798 805 810 825 827 871 875 898 902 933 936 956 967 0
1 1015 1021 1056 1075 1110 1116 1118 1127 1134 1137 1180 1214 1219 1286 0
1 1296 1301 1377 1406 1412 1457 1482 1520 1532 1538 1562 1573 1592 1610 0
1 1672 1715 1740 1741 1745 1782 1804 1823 1846 1852 1923 1951 2001 2002 0
1 2026 2029 2043 2068 2079 2138 2149 2156 2161 2171 2200 2206 2207 2215 0
1 2232 2253 2268 2328 2341 2361 2364 2370 2409 2424 2434 2458 2510 2512 0
1 2516 2547 2568 2575 2586 2591 2598 2677 2710 2737 2744 2790 2799 2838 0
1 2858 2861 2867 2933 2942 0
1  0
1 32 44 78 93 109 124 140 160 163 208 222 231 235 257 0
1 285 314 316 319 342 372 436 449 451 498 539 617 629 686 0
1 720 739 752 778 814 815 875 882 893 910 912 913 938 964 0
1 1018 1028 1047 1054 1073 1074 1101 1130 1135 1145 1211 1215 1229 1274 0
1 1289 1295 1302 1318 1340 1342 1357 1360 1382 1430 1481 1533 1582 1609 0
1 1676 1698 1701 1702 1711 1737 1744 1753 1759 1762 1775 1777 1801 1818 0
1 1924 1927 1945 1953 1991 2040 2043 2049 2079 2082 2083 2100 2118 2123 0
1 2146 2161 2206 2228 2241 2264 2283 2292 2353 2354 2358 2360 2385 2442 0
1 2520 2555 2579 2584 2594 2616 2657 2676 2728 2741 2758 2775 2784 2793 0
1 2819 2829 2857 2881 2939 2942 2952 2963 2980 0
1  0
1 39 56 66 84 105 143 184 249 250 258 300 301 302 317 0
1 325 348 362 369 373 421 435 457 466 485 486 573 585 613 0
1 629 662 665 675 728 735 745 759 760 779 780 801 819 841 0
1 857 867 966 1046 1048 1059 1082 1092 1116 1125 1136 1142 1156 1183 0
1 1188 1225 1246 1257 1261 1302 1318 1336 1350 1353 1369 1372 1377 1387 0
1 1439 1442 1471 1481 1504 1519 1552 1557 1584 1605 1606 1622 1625 1635 0
1 1673 1674 1705 1720 1742 1795 1810 1816 1832 1839 1840 1876 1891 1895 0
1 1921 1959 1960 1962 1973 1982 1983 1991 2048 2051 2066 2117 2126 2129 0
1 2152 2163 2164 2167 2168 2210 2221 2244 2291 2293 2329 2354 2378 2389 0
1 2460 2489 2513 2541 2566 2576 2591 2624 2672 2674 2680 2693 2696 2706 0
1 2737 2763 2824 2889 2893 2923 2931 2945 0
1  0
1 23 34 35 79 98 106 107 116 120 122 128 130 132 148 0
1 226 308 357 382 383 437 459 461 479 501 509 518 529 621 0
1 627 641 663 676 719 745 750 770 775 792 795 848 852 854 0
1 915 936 937 939 998 1002 1031 1061 1099 1119 1130 1133 1217 1235 0
1 1346 1373 1387 1394 1411 1457 1469 1502 1503 1528 1552 1561 1595 1601 0
1 1684 1706 1770 1773 1801 1857 1863 1873 1877 1931 1942 1946 1949 1951 0
1 1963 1976 1995 2041 2046 2061 2062 2082 2083 2098 2099 2104 2125 2142 0
1 2182 2215 2236 2238 2312 2329 2336 2345 2354 2373 2401 2405 2418 2441 0
1 2510 2511 2518 2521 2531 2551 2564 2573 2583 2595 2610 2616 2628 2652 0
1 2662 2699 2700 2718 2792 2794 2798 2801 2813 2833 2850 2876 2880 2888 0
1 2900 2905 2912 2915 2944 2975 2977 0
1  0
1 43 55 56 88 107 119 161 180 191 228 244 312 395 401 0
1 435 449 476 477 548 552 579 582 592 601 615 625 637 676 0
1 703 764 765 773 805 816 837 841 847 880 888 895 929 938 0
1 973 1008 1009 1033 1049 1050 1055 1057 1070 1076 1131 1138 1213 1226 0
1 1281 1362 1400 1402 1423 1436 1442 1478 1484 1498 1526 1541 1558 1561 0
1 1584 1598 1631 1650 1665 1683 1699 1705 1708 1714 1717 1731 1739 1756 0
1 1798 1808 1858 1877 1882 1924 1930 1948 1960 1967 1971 1990 2039 2044 0
1 2081 2098 2103 2109 2141 2145 2239 2248 2264 2297 2304 2352 2408 2500 0
1 2517 2519 2523 2542 2555 2559 2583 2589 2598 2612 2616 2618 2638 2649 0
1 2683 2695 2697 2749 2768 2785 2800 2817 2818 2879 2900 2923 2945 2974 0
1  0
1 37 41 55 76 130 155 219 221 243 290 307 315 344 348 0
1 393 441 448 453 488 497 520 528 573 641 657 666 681 709 0
1 731 769 782 791 799 816 852 893 899 905 924 929 963 964 0
1 1051 1069 1071 1091 1122 1124 1136 1138 1192 1229 1249 1258 1280 1296 0
1 1353 1420 1421 1439 1440 1446 1477 1506 1510 1567 1587 1592 1629 1634 0
1 1649 1656 1668 1683 1706 1708 1726 1744 1771 1782 1810 1834 1856 1876 0
1 1924 1960 1973 1989 1990 2006 2010 2021 2024 2028 2044 2047 2062 2115 0
1 2232 2237 2249 2260 2268 2271 2291 2298 2328 2330 2406 2443 2445 2451 0
1 2477 2494 2526 2537 2553 2566 2579 2581 2611 2621 2624 2646 2652 2667 0
1 2708 2712 2821 2837 2872 2886 2892 2901 2909 2963 2990 0
1  0
1 16 26 49 65 83 136 194 195 212 235 313 360 371 392 0
1 440 473 498 502 515 525 548 579 580 606 612 614 619 642 0
1 653 658 680 688 713 777 781 803 808 817 837 845 847 876 0
1 957 993 1007 1032 1049 1064 1065 1083 1107 1116 1120 1127 1129 1147 0
1 1179 1230 1247 1254 1259 1271 1285 1307 1318 1380 1394 1446 1495 1559 0
1 1589 1645 1658 1666 1668 1675 1692 1694 1697 1715 1736 1747 1777 1799 0
1 1834 1842 1899 1908 1909 1915 1933 1968 2013 2016 2035 2049 2070 2095 0
1 2154 2176 2190 2226 2230 2244 2252 2313 2330 2340 2357 2361 2378 2393 0
1 2425 2444 2483 2484 2499 2508 2518 2545 2552 2621 2638 2680 2742 2753 0
1 2768 2786 2788 2802 2880 2891 2933 2947 2968 2980 0
1  0
1 9 28 38 39 46 86 103 120 123 164 173 178 192 219 0
1 243 268 274 283 284 361 373 406 418 480 482 492 523 524 0
1 535 545 564 566 576 626 640 644 671 678 684 698 733 839 0
1 845 850 879 884 929 999 1002 1007 1012 1032 1048 1050 1057 1077 0
1 1126 1142 1153 1160 1202 1205 1231 1232 1236 1246 1251 1300 1316 1347 0
1 1364 1386 1389 1397 1404 1410 1439 1447 1477 1483 1523 1575 1577 1584 0
1 1613 1620 1623 1650 1710 1717 1769 1778 1779 1802 1840 1890 1933 1936 0
1 1974 1993 2040 2061 2075 2083 2095 2127 2142 2150 2174 2210 2225 2269 0
